p cnf 173 797
81 90 117 119 0
75 88 126 0
66 134 0
64 69 84 0
73 94 97 0
48 99 101 0
55 70 104 171 0
111 154 0
40 86 109 0
60 61 85 112 0
58 82 124 0
54 56 72 110 0
51 106 0
49 59 78 0
47 98 102 159 0
45 52 91 161 0
43 44 95 0
39 41 68 105 0
62 113 114 0
65 77 80 116 118 120 0
67 89 123 127 0
57 130 133 135 0
83 136 137 0
74 108 139 0
79 140 142 143 145 0
146 147 148 0
46 152 153 0
38 155 0
121 125 156 0
71 128 132 0
157 158 0
103 149 160 0
92 162 0
163 164 0
63 115 166 0
-75 -90 0
-66 -90 0
-69 -90 0
-90 -138 0
-73 -90 0
-90 -167 0
-66 -75 0
-69 -75 0
-75 -138 0
-73 -75 0
-75 -167 0
-66 -69 0
-66 -138 0
-66 -73 0
-66 -167 0
-69 -138 0
-69 -73 0
-69 -167 0
-73 -138 0
-138 -167 0
-73 -167 0
-48 -168 0
-104 -168 0
-53 -168 0
-111 -168 0
-40 -168 0
-112 -168 0
-48 -104 0
-48 -53 0
-48 -111 0
-40 -48 0
-48 -112 0
-53 -104 0
-104 -111 0
-40 -104 0
-104 -112 0
-53 -111 0
-40 -53 0
-53 -112 0
-40 -111 0
-111 -112 0
-40 -112 0
-58 -122 0
-58 -129 0
-56 -58 0
-58 -169 0
-58 -106 0
-58 -59 0
-122 -129 0
-56 -122 0
-122 -169 0
-106 -122 0
-59 -122 0
-56 -129 0
-129 -169 0
-106 -129 0
-59 -129 0
-56 -169 0
-56 -106 0
-56 -59 0
-106 -169 0
-59 -169 0
-59 -106 0
-150 -159 0
-45 -159 0
-44 -159 0
-41 -159 0
-159 -165 0
-62 -159 0
-45 -150 0
-44 -150 0
-41 -150 0
-150 -165 0
-62 -150 0
-44 -45 0
-41 -45 0
-45 -165 0
-45 -62 0
-41 -44 0
-44 -165 0
-44 -62 0
-41 -165 0
-41 -62 0
-62 -165 0
-116 -123 0
-116 -130 0
-116 -136 0
-116 -139 0
-116 -170 0
-116 -140 0
-123 -130 0
-123 -136 0
-123 -139 0
-123 -170 0
-123 -140 0
-130 -136 0
-130 -139 0
-130 -170 0
-130 -140 0
-136 -139 0
-136 -170 0
-136 -140 0
-139 -170 0
-139 -140 0
-140 -170 0
-146 -152 0
-100 -146 0
-146 -172 0
-146 -173 0
-146 -155 0
-87 -146 0
-100 -152 0
-152 -172 0
-152 -173 0
-152 -155 0
-87 -152 0
-100 -172 0
-100 -173 0
-100 -155 0
-87 -100 0
-172 -173 0
-155 -172 0
-87 -172 0
-155 -173 0
-87 -173 0
-87 -155 0
-71 -156 0
-76 -156 0
-37 -156 0
-36 -156 0
-35 -156 0
-156 -157 0
-71 -76 0
-37 -71 0
-36 -71 0
-35 -71 0
-71 -157 0
-37 -76 0
-36 -76 0
-35 -76 0
-76 -157 0
-36 -37 0
-35 -37 0
-37 -157 0
-35 -36 0
-36 -157 0
-35 -157 0
-90 -168 0
-58 -90 0
-90 -159 0
-90 -116 0
-90 -146 0
-90 -156 0
-58 -168 0
-159 -168 0
-116 -168 0
-146 -168 0
-156 -168 0
-58 -159 0
-58 -116 0
-58 -146 0
-58 -156 0
-116 -159 0
-146 -159 0
-156 -159 0
-116 -146 0
-116 -156 0
-146 -156 0
-48 -75 0
-75 -122 0
-75 -150 0
-75 -123 0
-75 -152 0
-71 -75 0
-48 -122 0
-48 -150 0
-48 -123 0
-48 -152 0
-48 -71 0
-122 -150 0
-122 -123 0
-122 -152 0
-71 -122 0
-123 -150 0
-150 -152 0
-71 -150 0
-123 -152 0
-71 -123 0
-71 -152 0
-66 -104 0
-66 -129 0
-45 -66 0
-66 -130 0
-66 -100 0
-66 -76 0
-104 -129 0
-45 -104 0
-104 -130 0
-100 -104 0
-76 -104 0
-45 -129 0
-129 -130 0
-100 -129 0
-76 -129 0
-45 -130 0
-45 -100 0
-45 -76 0
-100 -130 0
-76 -130 0
-76 -100 0
-53 -69 0
-56 -69 0
-44 -69 0
-69 -136 0
-69 -172 0
-37 -69 0
-53 -56 0
-44 -53 0
-53 -136 0
-53 -172 0
-37 -53 0
-44 -56 0
-56 -136 0
-56 -172 0
-37 -56 0
-44 -136 0
-44 -172 0
-37 -44 0
-136 -172 0
-37 -136 0
-37 -172 0
-111 -138 0
-138 -169 0
-41 -138 0
-138 -139 0
-138 -173 0
-36 -138 0
-111 -169 0
-41 -111 0
-111 -139 0
-111 -173 0
-36 -111 0
-41 -169 0
-139 -169 0
-169 -173 0
-36 -169 0
-41 -139 0
-41 -173 0
-36 -41 0
-139 -173 0
-36 -139 0
-36 -173 0
-40 -73 0
-73 -106 0
-73 -165 0
-73 -170 0
-73 -155 0
-35 -73 0
-40 -106 0
-40 -165 0
-40 -170 0
-40 -155 0
-35 -40 0
-106 -165 0
-106 -170 0
-106 -155 0
-35 -106 0
-165 -170 0
-155 -165 0
-35 -165 0
-155 -170 0
-35 -170 0
-35 -155 0
-112 -167 0
-59 -167 0
-62 -167 0
-140 -167 0
-87 -167 0
-157 -167 0
-59 -112 0
-62 -112 0
-112 -140 0
-87 -112 0
-112 -157 0
-59 -62 0
-59 -140 0
-59 -87 0
-59 -157 0
-62 -140 0
-62 -87 0
-62 -157 0
-87 -140 0
-140 -157 0
-87 -157 0
-117 -141 0
-63 -160 0
-117 -160 0
-63 -141 0
-34 -70 0
-34 -85 0
-70 -85 0
-98 -161 0
-98 -113 0
-113 -161 0
-118 -133 0
-118 -142 0
-133 -142 0
-34 -98 0
-34 -118 0
-98 -118 0
-70 -161 0
-70 -133 0
-133 -161 0
-85 -113 0
-85 -142 0
-113 -142 0
-88 -134 0
-84 -88 0
-33 -88 0
-84 -134 0
-33 -134 0
-33 -84 0
-31 -32 0
-32 -110 0
-30 -32 0
-31 -110 0
-30 -31 0
-30 -110 0
-29 -91 0
-29 -43 0
-29 -105 0
-43 -91 0
-91 -105 0
-43 -105 0
-27 -162 0
-26 -27 0
-27 -163 0
-26 -162 0
-162 -163 0
-26 -163 0
-32 -88 0
-29 -88 0
-27 -88 0
-29 -32 0
-27 -32 0
-27 -29 0
-31 -134 0
-91 -134 0
-134 -162 0
-31 -91 0
-31 -162 0
-91 -162 0
-84 -110 0
-43 -84 0
-26 -84 0
-43 -110 0
-26 -110 0
-26 -43 0
-30 -33 0
-33 -105 0
-33 -163 0
-30 -105 0
-30 -163 0
-105 -163 0
-25 -99 0
-25 -55 0
-24 -25 0
-25 -61 0
-55 -99 0
-24 -99 0
-61 -99 0
-24 -55 0
-55 -61 0
-24 -61 0
-23 -82 0
-22 -82 0
-54 -82 0
-49 -82 0
-22 -23 0
-23 -54 0
-23 -49 0
-22 -54 0
-22 -49 0
-49 -54 0
-77 -89 0
-77 -135 0
-77 -83 0
-77 -143 0
-89 -135 0
-83 -89 0
-89 -143 0
-83 -135 0
-135 -143 0
-83 -143 0
-147 -153 0
-21 -147 0
-20 -147 0
-19 -147 0
-21 -153 0
-20 -153 0
-19 -153 0
-20 -21 0
-19 -21 0
-19 -20 0
-28 -103 0
-92 -103 0
-42 -103 0
-103 -115 0
-28 -92 0
-28 -42 0
-28 -115 0
-42 -92 0
-92 -115 0
-42 -115 0
-25 -82 0
-25 -77 0
-25 -147 0
-25 -103 0
-77 -82 0
-82 -147 0
-82 -103 0
-77 -147 0
-77 -103 0
-103 -147 0
-23 -99 0
-89 -99 0
-99 -153 0
-28 -99 0
-23 -89 0
-23 -153 0
-23 -28 0
-89 -153 0
-28 -89 0
-28 -153 0
-22 -55 0
-55 -135 0
-21 -55 0
-55 -92 0
-22 -135 0
-21 -22 0
-22 -92 0
-21 -135 0
-92 -135 0
-21 -92 0
-24 -54 0
-24 -83 0
-20 -24 0
-24 -42 0
-54 -83 0
-20 -54 0
-42 -54 0
-20 -83 0
-42 -83 0
-20 -42 0
-49 -61 0
-61 -143 0
-19 -61 0
-61 -115 0
-49 -143 0
-19 -49 0
-49 -115 0
-19 -143 0
-115 -143 0
-19 -115 0
-81 -97 0
-81 -144 0
-97 -144 0
-18 -109 0
-18 -60 0
-60 -109 0
-17 -65 0
-65 -79 0
-17 -79 0
-18 -81 0
-65 -81 0
-18 -65 0
-97 -109 0
-17 -97 0
-17 -109 0
-60 -144 0
-79 -144 0
-60 -79 0
-119 -126 0
-64 -119 0
-107 -119 0
-94 -119 0
-16 -119 0
-64 -126 0
-107 -126 0
-94 -126 0
-16 -126 0
-64 -107 0
-64 -94 0
-16 -64 0
-94 -107 0
-16 -107 0
-16 -94 0
-124 -131 0
-72 -124 0
-15 -124 0
-51 -124 0
-78 -124 0
-72 -131 0
-15 -131 0
-51 -131 0
-78 -131 0
-15 -72 0
-51 -72 0
-72 -78 0
-15 -51 0
-15 -78 0
-51 -78 0
-13 -102 0
-95 -102 0
-68 -102 0
-12 -102 0
-102 -114 0
-13 -95 0
-13 -68 0
-12 -13 0
-13 -114 0
-68 -95 0
-12 -95 0
-95 -114 0
-12 -68 0
-68 -114 0
-12 -114 0
-67 -80 0
-80 -137 0
-74 -80 0
-80 -96 0
-80 -145 0
-67 -137 0
-67 -74 0
-67 -96 0
-67 -145 0
-74 -137 0
-96 -137 0
-137 -145 0
-74 -96 0
-74 -145 0
-96 -145 0
-121 -128 0
-11 -121 0
-10 -121 0
-9 -121 0
-121 -158 0
-11 -128 0
-10 -128 0
-9 -128 0
-128 -158 0
-10 -11 0
-9 -11 0
-11 -158 0
-9 -10 0
-10 -158 0
-9 -158 0
-8 -149 0
-7 -149 0
-149 -164 0
-6 -149 0
-149 -166 0
-7 -8 0
-8 -164 0
-6 -8 0
-8 -166 0
-7 -164 0
-6 -7 0
-7 -166 0
-6 -164 0
-164 -166 0
-6 -166 0
-119 -124 0
-102 -119 0
-80 -119 0
-119 -121 0
-119 -149 0
-102 -124 0
-80 -124 0
-121 -124 0
-124 -149 0
-80 -102 0
-102 -121 0
-102 -149 0
-80 -121 0
-80 -149 0
-121 -149 0
-126 -131 0
-13 -126 0
-67 -126 0
-126 -128 0
-8 -126 0
-13 -131 0
-67 -131 0
-128 -131 0
-8 -131 0
-13 -67 0
-13 -128 0
-8 -13 0
-67 -128 0
-8 -67 0
-8 -128 0
-64 -72 0
-64 -95 0
-64 -137 0
-11 -64 0
-7 -64 0
-72 -95 0
-72 -137 0
-11 -72 0
-7 -72 0
-95 -137 0
-11 -95 0
-7 -95 0
-11 -137 0
-7 -137 0
-7 -11 0
-15 -107 0
-68 -107 0
-74 -107 0
-10 -107 0
-107 -164 0
-15 -68 0
-15 -74 0
-10 -15 0
-15 -164 0
-68 -74 0
-10 -68 0
-68 -164 0
-10 -74 0
-74 -164 0
-10 -164 0
-51 -94 0
-12 -94 0
-94 -96 0
-9 -94 0
-6 -94 0
-12 -51 0
-51 -96 0
-9 -51 0
-6 -51 0
-12 -96 0
-9 -12 0
-6 -12 0
-9 -96 0
-6 -96 0
-6 -9 0
-16 -78 0
-16 -114 0
-16 -145 0
-16 -158 0
-16 -166 0
-78 -114 0
-78 -145 0
-78 -158 0
-78 -166 0
-114 -145 0
-114 -158 0
-114 -166 0
-145 -158 0
-145 -166 0
-158 -166 0
-101 -151 0
-151 -171 0
-151 -154 0
-86 -151 0
-101 -171 0
-101 -154 0
-86 -101 0
-154 -171 0
-86 -171 0
-86 -154 0
-5 -47 0
-47 -52 0
-39 -47 0
-4 -47 0
-5 -52 0
-5 -39 0
-4 -5 0
-39 -52 0
-4 -52 0
-4 -39 0
-120 -127 0
-57 -120 0
-108 -120 0
-93 -120 0
-57 -127 0
-108 -127 0
-93 -127 0
-57 -108 0
-57 -93 0
-93 -108 0
-46 -148 0
-3 -148 0
-2 -148 0
-38 -148 0
-3 -46 0
-2 -46 0
-38 -46 0
-2 -3 0
-3 -38 0
-2 -38 0
-125 -132 0
-1 -125 0
-14 -125 0
-50 -125 0
-1 -132 0
-14 -132 0
-50 -132 0
-1 -14 0
-1 -50 0
-14 -50 0
-47 -151 0
-120 -151 0
-148 -151 0
-125 -151 0
-47 -120 0
-47 -148 0
-47 -125 0
-120 -148 0
-120 -125 0
-125 -148 0
-5 -101 0
-101 -127 0
-46 -101 0
-101 -132 0
-5 -127 0
-5 -46 0
-5 -132 0
-46 -127 0
-127 -132 0
-46 -132 0
-52 -171 0
-57 -171 0
-3 -171 0
-1 -171 0
-52 -57 0
-3 -52 0
-1 -52 0
-3 -57 0
-1 -57 0
-1 -3 0
-39 -154 0
-108 -154 0
-2 -154 0
-14 -154 0
-39 -108 0
-2 -39 0
-14 -39 0
-2 -108 0
-14 -108 0
-2 -14 0
-4 -86 0
-86 -93 0
-38 -86 0
-50 -86 0
-4 -93 0
-4 -38 0
-4 -50 0
-38 -93 0
-50 -93 0
-38 -50 0
